
List of user-set options:

                                    Name   Value                used
                           compl_inf_tol = 1                     yes
                         constr_viol_tol = 1                     yes
                            dual_inf_tol = 1000                  yes
                           linear_solver = ma97                  yes
                              ma86_small = 1e-30                  no
                                  ma86_u = 0.0001                 no
                              ma97_order = best                  yes
                              ma97_small = 1e-30                 yes
                            ma97_switch1 = at_start              yes
                            ma97_switch2 = od_hd_reuse           yes
                                  ma97_u = 1e-06                 yes
                               ma97_umax = 0.5                   yes
                                max_iter = 1000                  yes
                    max_refinement_steps = 20                    yes
                    min_refinement_steps = 5                     yes
                                 mu_init = 1e-06                 yes
           mu_superlinear_decrease_power = 1.25                  yes
                   nlp_scaling_min_value = 1e-08                 yes
                        option_file_name = Preset_Case_307_pf.opt  yes
                             output_file = ./tmp/Preset_Case_307_pf.output  yes
                      print_user_options = yes                   yes
        required_infeasibility_reduction = 1                      no
                                     tol = 1e-08                 yes
                   warm_start_bound_frac = 1e-20                 yes
                   warm_start_bound_push = 1e-20                 yes
                   warm_start_init_point = yes                   yes
              warm_start_mult_bound_push = 1e-20                 yes
                warm_start_mult_init_max = 1e+40                 yes
             warm_start_slack_bound_frac = 1e-20                 yes
             warm_start_slack_bound_push = 1e-20                 yes

******************************************************************************
This program contains Ipopt, a library for large-scale nonlinear optimization.
 Ipopt is released as open source code under the Eclipse Public License (EPL).
         For more information visit http://projects.coin-or.org/Ipopt
******************************************************************************

This is Ipopt version 3.12.10, running with linear solver ma97.

Number of nonzeros in equality constraint Jacobian...:   123443
Number of nonzeros in inequality constraint Jacobian.:      213
Number of nonzeros in Lagrangian Hessian.............:    49069

Total number of variables............................:    31591
                     variables with only lower bounds:    12912
                variables with lower and upper bounds:    15130
                     variables with only upper bounds:        0
Total number of equality constraints.................:    31483
Total number of inequality constraints...............:       25
        inequality constraints with only lower bounds:        4
   inequality constraints with lower and upper bounds:        0
        inequality constraints with only upper bounds:       21

iter    objective    inf_pr   inf_du lg(mu)  ||d||  lg(rg) alpha_du alpha_pr  ls
   0 -5.4870829e+00 4.04e-03 1.02e+00  -6.0 0.00e+00    -  0.00e+00 0.00e+00   0
   1 -5.4866947e+00 7.36e-01 9.27e+00  -6.0 4.17e+05    -  7.55e-05 2.69e-04h  3
   2 -5.4904234e+00 7.36e-01 5.81e+01  -6.0 1.34e+04    -  2.53e-01 7.03e-04h  1
   3 -5.4894440e+00 6.62e-01 1.25e+04  -6.0 4.72e+02  -4.0 2.26e-02 1.01e-01h  1
   4 -5.5169409e+00 1.44e+00 1.22e+04  -6.0 1.04e+04    -  1.86e-02 1.64e-02h  1
   5 -5.6674782e+00 1.38e+00 1.11e+04  -6.0 5.14e+03    -  1.19e-01 1.41e-01h  1
   6 -5.8576804e+00 4.83e+00 1.40e+04  -6.0 3.54e+03    -  1.60e-02 2.31e-01h  1
   7 -5.8933454e+00 4.51e+00 1.33e+04  -6.0 3.12e+03    -  8.59e-03 8.45e-02h  1
   8 -5.9364892e+00 4.11e+00 4.70e+05  -6.0 2.12e+03    -  4.66e-02 1.04e-01h  1
   9 -6.1751111e+00 2.38e+01 8.13e+05  -6.0 1.99e+03    -  1.38e-01 6.66e-01h  1
iter    objective    inf_pr   inf_du lg(mu)  ||d||  lg(rg) alpha_du alpha_pr  ls
  10 -6.0543905e+00 1.59e+01 1.81e+05  -6.0 2.22e+03    -  1.59e-01 1.00e+00h  1
  11 -6.0994767e+00 1.22e+01 1.44e+05  -6.0 1.42e+03    -  2.32e-01 2.69e-01h  1
  12 -6.0685886e+00 8.37e+00 1.21e+05  -6.0 5.35e+02    -  4.48e-03 3.15e-01h  1
  13 -6.0429934e+00 6.30e+00 1.13e+05  -6.0 8.69e+02    -  6.96e-01 2.49e-01h  1
  14 -6.0447039e+00 5.77e+00 5.98e+05  -6.0 2.67e+03    -  8.13e-03 8.47e-02h  2
  15 -6.0457641e+00 5.73e+00 6.04e+05  -6.0 1.16e+02  -4.5 3.13e-02 5.60e-03h  1
  16 -6.0339653e+00 1.57e+00 2.89e+06  -6.0 2.51e+02    -  3.99e-03 1.00e+00h  1
  17 -6.0486603e+00 1.89e+00 2.74e+06  -6.0 6.79e+03    -  4.17e-01 5.26e-02h  1
  18 -6.1161215e+00 8.85e+00 1.60e+06  -6.0 3.31e+03    -  6.81e-01 4.15e-01h  1
  19 -6.0796892e+00 4.28e-01 5.85e+03  -6.0 7.38e+01  -5.0 1.38e-02 1.00e+00h  1
iter    objective    inf_pr   inf_du lg(mu)  ||d||  lg(rg) alpha_du alpha_pr  ls
  20 -6.0808688e+00 2.87e-01 3.84e+03  -6.0 5.84e+01  -5.4 3.34e-01 3.29e-01h  1
  21 -6.1160150e+00 6.18e-01 1.33e+03  -6.0 4.57e+02    -  3.24e-01 8.13e-01f  1
  22 -6.1179011e+00 5.46e-01 1.03e+03  -6.0 1.28e+03    -  2.61e-01 1.18e-01h  1
  23 -6.1242975e+00 9.69e-01 3.57e+02  -6.0 1.41e+03    -  7.78e-01 3.32e-01h  1
  24 -6.1403206e+00 4.58e+00 1.45e+02  -6.0 1.05e+03    -  5.29e-01 1.00e+00h  1
  25 -6.1440793e+00 3.45e+00 9.56e+01  -6.0 6.03e+02    -  2.51e-01 2.49e-01h  1
  26 -6.1475291e+00 1.54e+00 1.03e+02  -6.0 2.85e+02    -  1.00e+00 1.00e+00h  1
  27 -6.1492278e+00 1.26e+00 4.26e+03  -6.0 2.23e+02    -  4.26e-01 2.30e-01h  1
  28 -6.1569237e+00 1.38e+00 2.12e+02  -6.0 2.18e+02    -  1.00e+00 1.00e+00h  1
  29 -6.1605506e+00 1.06e+00 1.38e+04  -6.0 2.06e+02    -  4.63e-01 3.23e-01h  1
iter    objective    inf_pr   inf_du lg(mu)  ||d||  lg(rg) alpha_du alpha_pr  ls
  30 -6.1672706e+00 8.46e-01 6.42e+04  -6.0 2.06e+02    -  1.00e+00 5.63e-01h  1
  31 -6.1697656e+00 7.18e-01 4.69e+05  -6.0 3.90e+02    -  6.58e-02 1.90e-01h  1
  32 -6.1697803e+00 7.18e-01 4.77e+05  -6.0 8.60e+02    -  1.89e-01 2.49e-04h  1
  33 -6.1862689e+00 5.89e+00 1.67e+06  -6.0 7.99e+02    -  4.37e-03 7.52e-01f  1
  34 -6.1925213e+00 4.02e-01 1.72e+06  -6.0 1.21e+02  -5.9 1.05e-02 1.00e+00h  1
  35 -6.1913893e+00 5.00e-02 3.39e+02  -6.0 2.82e+01  -6.4 6.95e-01 1.00e+00h  1
  36 -6.1940822e+00 5.49e-01 1.47e+02  -6.0 9.30e+01  -6.9 5.94e-01 5.66e-01h  1
  37 -6.1977563e+00 8.27e-01 3.98e+01  -6.0 3.26e+02  -7.3 3.68e-01 1.00e+00h  1
  38 -6.1998803e+00 7.13e-03 2.48e+00  -6.0 4.93e+00  -5.1 8.83e-01 1.00e+00h  1
  39 -6.2000861e+00 8.33e-03 2.10e-02  -6.0 5.77e+00  -5.6 1.00e+00 1.00e+00h  1
iter    objective    inf_pr   inf_du lg(mu)  ||d||  lg(rg) alpha_du alpha_pr  ls
  40 -6.2013287e+00 4.31e-02 1.34e-01  -6.0 1.74e+01  -6.1 1.00e+00 1.00e+00h  1
  41 -6.2045544e+00 8.26e-02 5.63e-01  -6.0 5.23e+01  -6.5 1.00e+00 1.00e+00h  1
  42 -6.2117424e+00 1.47e-01 1.91e+00  -6.0 1.60e+02  -7.0 1.00e+00 1.00e+00h  1
  43 -6.2267148e+00 1.17e+00 1.48e+01  -6.0 4.76e+02  -7.5 1.00e+00 1.00e+00h  1
  44 -6.2398066e+00 1.12e+00 2.15e+01  -6.0 2.33e+03    -  5.32e-01 2.52e-01h  1
  45 -6.2626163e+00 2.58e-01 3.70e+01  -6.0 1.61e+03    -  1.00e+00 1.00e+00h  1
  46 -6.2499649e+00 5.70e-02 6.16e-01  -6.0 2.29e+01  -7.1 1.00e+00 1.00e+00h  1
  47 -6.2501154e+00 5.51e-01 1.57e+01  -6.0 8.71e+02    -  1.00e+00 1.51e-01h  1
  48 -6.2503554e+00 7.08e-01 8.75e+00  -6.0 3.96e+02    -  2.94e-01 5.00e-01h  2
  49 -6.2503851e+00 7.03e-02 1.96e-01  -6.0 8.35e+01    -  1.00e+00 1.00e+00h  1
iter    objective    inf_pr   inf_du lg(mu)  ||d||  lg(rg) alpha_du alpha_pr  ls
  50 -6.2503512e+00 5.60e-02 8.99e-03  -6.0 5.40e+01    -  1.00e+00 1.00e+00h  1
  51 -6.2503486e+00 2.73e-03 2.85e-04  -6.0 1.01e+01    -  1.00e+00 1.00e+00h  1
  52 -6.2503485e+00 5.58e-08 5.07e-09  -6.0 4.91e-02    -  1.00e+00 1.00e+00h  1
  53 -6.2504286e+00 1.30e-01 4.75e+01  -7.5 1.12e+02    -  9.52e-01 7.86e-01h  1
  54 -6.2504272e+00 2.20e-02 7.71e+00  -7.5 2.45e+01    -  1.00e+00 8.93e-01h  1
  55 -6.2504259e+00 9.64e-05 1.51e-03  -7.5 2.36e+00    -  1.00e+00 1.00e+00h  1
  56 -6.2504259e+00 2.85e-10 2.35e-10  -7.5 3.27e-03    -  1.00e+00 1.00e+00h  1
  57 -6.2504273e+00 1.55e-04 6.94e-01  -9.0 3.57e+00    -  9.22e-01 8.47e-01h  1
  58 -6.2504276e+00 5.10e-06 1.52e-01  -9.0 5.48e-01    -  9.63e-01 1.00e+00f  1
  59 -6.2504276e+00 2.67e-10 5.57e-09  -9.0 1.28e-04    -  1.00e+00 1.00e+00h  1

Number of Iterations....: 59

                                   (scaled)                 (unscaled)
Objective...............:  -4.8831465409944110e+00   -6.2504275724728462e+00
Dual infeasibility......:   5.5705834284417520e-09    7.1303467884054430e-09
Constraint violation....:   2.6682307968997621e-10    2.6682307968997621e-10
Complementarity.........:   1.4431198707642048e-09    1.8471934345781821e-09
Overall NLP error.......:   5.5705834284417520e-09    7.1303467884054430e-09


Number of objective function evaluations             = 71
Number of objective gradient evaluations             = 60
Number of equality constraint evaluations            = 71
Number of inequality constraint evaluations          = 71
Number of equality constraint Jacobian evaluations   = 60
Number of inequality constraint Jacobian evaluations = 60
Number of Lagrangian Hessian evaluations             = 59
Total CPU secs in IPOPT (w/o function evaluations)   =    129.521
Total CPU secs in NLP function evaluations           =      2.344

EXIT: Optimal Solution Found.
